data/benchmarks/bayes/75-15-5-q.cnf
p cnf 1065 1057
c weights 0.05949 0.94051 1 1 1 1 1 1 1 1 1 1 1 1 1 1 1 1 1 1 1 1 1 1 1 1 1 1 1 1 1 1 1 1 1 1 1 1 1 1 1 1 1 1 1 1 1 1 1 1 1 1 1 1 1 1 1 1 1 1 1 1 1 1 1 1 1 1 1 1 1 1 1 1 1 1 1 1 1 1 1 1 1 1 1 1 1 1 1 1 1 1 1 1 1 1 1 1 1 1 1 1 1 1 1 1 1 1 1 1 1 1 1 1 1 1 1 1 1 1 1 1 1 1 1 1 1 1 1 1 1 1 1 1 1 1 1 1 1 1 1 1 1 1 1 1 1 1 1 1 1 1 1 1 1 1 1 1 1 1 1 1 1 1 1 1 1 1 1 1 1 1 1 1 1 1 1 1 1 1 1 1 1 1 1 1 1 1 1 1 1 1 1 1 1 1 1 1 1 1 1 1 1 1 1 1 1 1 1 1 1 1 1 1 1 1 1 1 1 1 1 1 1 1 1 1 1 1 1 1 1 1 1 1 1 1 1 1 1 1 1 1 1 1 1 1 1 1 1 1 1 1 1 1 1 1 1 1 1 1 1 1 1 1 1 1 1 1 1 1 1 1 1 1 1 1 1 1 1 1 1 1 1 1 1 1 1 1 1 1 1 1 1 1 1 1 1 1 1 1 1 1 1 1 1 1 1 1 1 1 1 1 1 1 1 1 1 1 1 1 1 1 1 1 1 1 1 1 1 1 1 1 1 1 1 1 1 1 1 1 1 1 1 1 1 1 1 1 1 1 1 1 1 1 1 1 1 1 1 1 1 1 1 1 1 1 1 1 1 1 1 1 1 1 1 1 1 1 1 1 1 1 1 1 1 1 1 1 1 1 1 1 1 1 1 1 1 1 1 1 1 1 1 1 1 1 1 1 1 1 1 1 1 1 1 1 1 1 1 1 1 1 1 1 1 1 1 1 1 1 1 1 1 1 1 1 1 1 1 1 1 1 1 1 1 1 1 1 1 1 0.5 0.5 0.5 0.5 0.5 0.5 0.5 0.5 0.5 0.5 0.5 0.5 0.5 0.5 0.5 0.5 0.895522 0.10447799999999996 0.03591 0.96409 0.18755 0.81245 0.220108 0.779892 0.5 0.5 0.5 0.5 0.5 0.5 0.5 0.5 0.723548 0.27645200000000003 0.640377 0.359623 0.351897 0.648103 0.437539 0.562461 0.084458 0.915542 0.990154 0.009846000000000021 0.0292748 0.9707252 0.331692 0.668308 0.317794 0.682206 0.775507 0.22449300000000005 0.5 0.5 0.5 0.5 0.237003 0.762997 0.390187 0.6098129999999999 0.228031 0.771969 0.285709 0.714291 0.793118 0.206882 0.982734 0.017266000000000004 0.5 0.5 0.5 0.5 0.5 0.5 0.5 0.5 0.879375 0.12062499999999998 0.0569131 0.9430869 0.703051 0.296949 0.231272 0.768728 0.5 0.5 0.5 0.5 0.5 0.5 0.5 0.5 0.5 0.5 0.5 0.5 0.5 0.5 0.5 0.5 0.5 0.5 0.5 0.5 0.5 0.5 0.5 0.5 0.5 0.5 0.5 0.5 0.5 0.5 0.5 0.5 0.00449333 0.99550667 0.205564 0.794436 0.717707 0.282293 0.16032 0.83968 0.5 0.5 0.5 0.5 0.5 0.5 0.5 0.5 0.5 0.5 0.5 0.5 0.5 0.5 0.5 0.5 0.474368 0.525632 0.652259 0.34774099999999997 0.594501 0.40549900000000005 0.0661729 0.9338271 0.5 0.5 0.5 0.5 0.5 0.5 0.5 0.5 0.5 0.5 0.5 0.5 0.5 0.5 0.5 0.5 0.701027 0.29897300000000004 0.327365 0.672635 0.482349 0.517651 0.861347 0.13865300000000003 0.992146 0.007854000000000028 0.901043 0.09895699999999996 0.5 0.5 0.5 0.5 0.5 0.5 0.5 0.5 0.5 0.5 0.5 0.5 0.5 0.5 0.5 0.5 0.5 0.5 0.5 0.5 0.5 0.5 0.5 0.5 0.5 0.5 0.5 0.5 0.5 0.5 0.5 0.5 0.644256 0.35574399999999995 0.721679 0.27832100000000004 0.610497 0.38950300000000004 0.971621 0.028379000000000043 0.5 0.5 0.5 0.5 0.5 0.5 0.5 0.5 0.5 0.5 0.5 0.5 0.5 0.5 0.5 0.5 0.5 0.5 0.5 0.5 0.5 0.5 0.5 0.5 0.5 0.5 0.5 0.5 0.5 0.5 0.5 0.5 0.977337 0.02266299999999999 0.467065 0.5329349999999999 0.492904 0.507096 0.934373 0.06562699999999999 0.5 0.5 0.5 0.5 0.5 0.5 0.5 0.5 0.458875 0.5411250000000001 0.0298671 0.9701329 0.0562535 0.9437465 0.831762 0.168238 0.5 0.5 0.5 0.5 0.5 0.5 0.5 0.5 0.5 0.5 0.5 0.5 0.5 0.5 0.5 0.5 0.234823 0.765177 0.699287 0.300713 0.488952 0.511048 0.669736 0.330264 0.8276 0.1724 0.956017 0.043982999999999994 0.5 0.5 0.5 0.5 0.5 0.5 0.5 0.5 0.5 0.5 0.5 0.5 0.5 0.5 0.5 0.5 0.5 0.5 0.5 0.5 0.5 0.5 0.5 0.5 0.770268 0.22973200000000005 0.667141 0.332859 0.691281 0.30871899999999997 0.764593 0.23540700000000003 0.5 0.5 0.5 0.5 0.5 0.5 0.5 0.5 0.5 0.5 0.5 0.5 0.5 0.5 0.5 0.5 0.45345 0.54655 0.734455 0.26554500000000003 0.19199 0.80801 0.75325 0.24675000000000002 0.5 0.5 0.5 0.5 0.5 0.5 0.5 0.5 0.5 0.5 0.5 0.5 0.5 0.5 0.5 0.5 0.566981 0.43301900000000004 0.326991 0.673009 0.55427 0.44572999999999996 0.258262 0.741738 0.5 0.5 0.5 0.5 0.5 0.5 0.5 0.5 0.634445 0.36555499999999996 0.335188 0.664812 0.755798 0.24420200000000003 0.925255 0.07474499999999995 0.5 0.5 0.5 0.5 0.5 0.5 0.5 0.5 0.5 0.5 0.5 0.5 0.5 0.5 0.5 0.5 0.5 0.5 0.5 0.5 0.5 0.5 0.5 0.5 0.5 0.5 0.5 0.5 0.5 0.5 0.5 0.5 0.5 0.5 0.5 0.5 0.775379 0.22462099999999996 0.378802 0.6211979999999999 0.0364758 0.9635241999999999 0.627755 0.37224500000000005 0.5 0.5 0.5 0.5 0.5 0.5 0.5 0.5 0.317207 0.682793 0.721457 0.278543 0.806016 0.19398400000000005 0.449162 0.5508379999999999 0.124816 0.875184 0.742949 0.25705100000000003 0.541248 0.45875200000000005 0.733647 0.26635299999999995 0.5 0.5 0.5 0.5 0.5 0.5 0.5 0.5 0.5 0.5 0.5 0.5 0.5 0.5 0.5 0.5 0.5 0.5 0.5 0.5 0.5 0.5 0.5 0.5 0.909556 0.09044399999999997 0.843733 0.15626700000000004 0.352615 0.647385 0.848057 0.15194300000000005 0.5 0.5 0.5 0.5 0.5 0.5 0.5 0.5 0.5 0.5 0.5 0.5 0.5 0.5 0.5 0.5 0.5 0.5 0.5 0.5 0.5 0.5 0.5 0.5 0.5 0.5 0.5 0.5 0.181027 0.818973 0.922572 0.07742800000000005 0.279328 0.720672 0.0773352 0.9226648 0.5 0.5 0.5 0.5 0.5 0.5 0.5 0.5 0.76144 0.23856 0.952409 0.04759100000000005 0.000212395 0.999787605 0.00596285 0.99403715 0.5 0.5 0.5 0.5 0.5 0.5 0.5 0.5 0.407947 0.5920529999999999 0.966406 0.03359400000000001 0.501587 0.498413 0.66656 0.33343999999999996 0.5 0.5 0.5 0.5 0.5 0.5 0.5 0.5 0.5 0.5 0.5 0.5 0.5 0.5 0.5 0.5 0.368305 0.631695 0.947879 0.05212099999999997 0.921802 0.07819799999999999 0.60668 0.39332 0.5 0.5 0.5 0.5 0.5 0.5 0.5 0.5 0.5 0.5 0.5 0.5 0.5 0.5 0.5 0.5 0.5 0.5 0.5 0.5 0.5 0.5 0.5 0.5 0.5 0.5 0.5 0.5 0.5 0.5 0.5 0.5 0.5 0.5 0.5 0.5 0.5 0.5 0.5 0.5 0.5 0.5 0.5 0.5 0.5 0.5 0.5 0.5 0.5 0.5 0.5 0.5 0.5 0.5 0.5 0.5 0.5 0.5 0.5 0.5 0.5 0.5 0.5 0.5 0.5 0.5 0.5 0.5 0.5 0.5 0.5 0.5 0.5 0.5 0.5 0.5 0.5 0.5 0.5 0.5 0.5 0.5 0.5 0.5 0.5 0.5 0.5 0.5 0.5 0.5 0.5 0.5 0.5 0.5 0.5 0.5 0.5 0.5 0.5 0.5 0.5 0.5 0.5 0.5 0.5 0.5 0.5 0.5 0.5 0.5 0.5 0.5 0.5 0.5 0.5 0.5 0.5 0.5 0.5 0.5 0.5 0.5 0.5 0.5 0.5 0.5 0.5 0.5 0.5 0.5 0.5 0.5 0.5 0.5 0.5 0.5 0.5 0.5 0.5 0.5 0.5 0.5 0.5 0.5 0.5 0.5 0.5 0.5 0.5 0.5 0.5 0.5 0.5 0.5 0.5 0.5 0.0808553 0.9191447 0.275262 0.724738 0.891555 0.10844500000000001 0.374237 0.6257630000000001 0.34345 0.65655 0.712962 0.287038 0.5 0.5 0.5 0.5 0.5 0.5 0.5 0.5 0.5 0.5 0.5 0.5 0.5 0.5 0.5 0.5 0.5 0.5 0.5 0.5 0.5 0.5 0.5 0.5 0.5 0.5 0.5 0.5 0.5 0.5 0.5 0.5 0.5 0.5 0.5 0.5 0.5 0.5 0.5 0.5 0.785961 0.21403899999999998 0.0539491 0.9460509 0.217605 0.782395 0.498923 0.501077 0.5 0.5 0.5 0.5 0.5 0.5 0.5 0.5 0.5 0.5 0.5 0.5 0.5 0.5 0.5 0.5 0.5 0.5 0.5 0.5 0.5 0.5 0.5 0.5 0.5 0.5 0.5 0.5 0.5 0.5 0.5 0.5 0.5 0.5 0.5 0.5 0.5 0.5 0.5 0.5 0.5 0.5 0.5 0.5 0.5 0.5 0.5 0.5 0.5 0.5 0.5 0.5 0.5 0.5 0.5 0.5 0.5 0.5 0.5 0.5 0.5 0.5 0.5 0.5 0.5 0.5 0.5 0.5 0.976913 0.02308699999999997 0.871519 0.12848099999999996 0.913428 0.08657199999999998 0.20057 0.79943 0.5 0.5 0.5 0.5 0.5 0.5 0.5 0.5 0.916329 0.08367100000000005 0.875277 0.12472300000000003 0.985839 0.01416099999999998 0.530338 0.469662 0.5 0.5 0.5 0.5 0.5 0.5 0.5 0.5 0.5 0.5 0.5 0.5 0.5 0.5 0.5 0.5 0.5 0.5 0.5 0.5 0.5 0.5 0.5 0.5 0.5 0.5 0.5 0.5 0.5 0.5 0.5 0.5 0.133816 0.8661840000000001 0.953861 0.04613900000000004 0.0809061 0.9190939 0.303704 0.696296 0.997235 0.0027650000000000174 0.178981 0.8210189999999999 0.885371 0.11462899999999998 0.527573 0.47242700000000004 0.5 0.5 0.5 0.5 0.5 0.5 0.5 0.5 0.5 0.5 0.5 0.5 0.5 0.5 0.5 0.5 0.5 0.5 0.5 0.5 0.5 0.5 0.5 0.5 0.5 0.5 0.5 0.5 0.5 0.5 0.5 0.5 0.5 0.5 0.5 0.5 0.5 0.5 0.5 0.5 0.5 0.5 0.5 0.5 0.5 0.5 0.5 0.5 0.5 0.5 0.5 0.5 0.0339261 0.9660739 0.012574 0.987426 0.180856 0.819144 0.957251 0.04274900000000004 0.5 0.5 0.5 0.5 0.5 0.5 0.5 0.5 0.984029 0.015970999999999957 0.246125 0.753875 0.938501 0.06149899999999997 0.695747 0.304253 0.5 0.5 0.5 0.5 0.5 0.5 0.5 0.5 0.151771 0.848229 0.175013 0.824987 0.552853 0.44714699999999996 0.575511 0.424489 0.1277 0.8723 0.526824 0.47317600000000004 0.892243 0.10775699999999999 0.667876 0.332124 0.5 0.5 0.5 0.5 0.5 0.5 0.5 0.5 0.5 0.5 0.5 0.5 0.5 0.5 0.5 0.5 0.5 0.5 0.5 0.5 0.5 0.5 0.5 0.5 0.5 0.5 0.5 0.5 0.5 0.5 0.5 0.5 0.5 0.5 0.5 0.5 0.5 0.5 0.5 0.5 0.5 0.5 0.5 0.5 0.5 0.5 0.5 0.5 0.5 0.5 0.5 0.5 0.5 0.5 0.5 0.5 0.530222 0.46977800000000003 0.488121 0.511879 0.5 0.5 0.5 0.5 0.5 0.5 0.5 0.5 0.5 0.5 0.5 0.5 0.5 0.5 0.5 0.5 0.5 0.5 0.5 0.5 0.5 0.5 0.5 0.5 0.5 0.5 0.5 0.5 0.5 0.5 0.5 0.5 0.5 0.5 0.5 0.5 0.5 0.5 0.5 0.5 0.5 0.5 0.5 0.5 0.5 0.5 0.5 0.5 0.5 0.5 0.5 0.5 0.5 0.5 0.5 0.5 0.5 0.5 0.5 0.5 0.5 0.5 0.5 0.5 0.5 0.5 0.5 0.5 0.5 0.5 0.5 0.5 0.5 0.5 0.5 0.5 0.5 0.5 0.5 0.5 0.5 0.5 0.5 0.5 0.5 0.5 0.5 0.5 0.5 0.5 0.5 0.5 0.5 0.5 0.5 0.5 0.906765 0.09323499999999996 0.436074 0.5639259999999999 0.957221 0.04277900000000001 0.92261 0.07738999999999996 0.5 0.5 0.5 0.5 0.5 0.5 0.5 0.5 0.888152 0.11184799999999995 0.407502 0.592498 0.5 0.5 0.5 0.5 0.5 0.5 0.5 0.5 0.5 0.5 0.5 0.5 0.5 0.5 0.5 0.5 0.5 0.5 0.5 0.5 0.5 0.5 0.5 0.5 0.5 0.5 0.5 0.5 0.5 0.5 0.5 0.5 0.5 0.5 0.5 0.5 0.5 0.5 0.5 0.5 0.5 0.5 0.5 0.5 0.5 0.5 0.5 0.5 0.5 0.5 0.5 0.5 0.5 0.5 0.5 0.5 0.5 0.5 0.5 0.5 0.5 0.5 0.5 0.5 0.606824 0.39317599999999997 0.460315 0.539685 0.222525 0.777475 0.448164 0.551836 0.5 0.5 0.5 0.5 0.5 0.5 0.5 0.5 0.5 0.5 0.5 0.5 0.5 0.5 0.5 0.5 0.5 0.5 0.5 0.5 0.5 0.5 0.5 0.5 0.5 0.5 0.5 0.5 0.5 0.5 0.5 0.5 0.5 0.5 0.5 0.5 0.5 0.5 0.5 0.5 0.15607 0.8439300000000001 0.642971 0.35702900000000004 0.5 0.5 0.5 0.5 0.5 0.5 0.5 0.5 0.416001 0.5839989999999999 0.873287 0.12671299999999996 0.561452 0.43854800000000005 0.258212 0.741788 0.188809 0.811191 0.382505 0.617495 0.0637516 0.9362484 0.338556 0.6614439999999999 0.5 0.5 0.5 0.5 0.5 0.5 0.5 0.5 0.0533855 0.9466145 0.868418 0.13158199999999998 0.328774 0.671226 0.423879 0.576121 0.878021 0.12197899999999995 0.606535 0.39346499999999995 0.896793 0.10320700000000005 0.0340909 0.9659091 0.5 0.5 0.5 0.5 0.5 0.5 0.5 0.5 0.5 0.5 0.5 0.5 0.5 0.5 0.5 0.5 0.5 0.5 0.5 0.5 0.5 0.5 0.5 0.5 0.5 0.5 0.5 0.5 0.5 0.5 0.5 0.5 0.5 0.5 0.5 0.5 0.5 0.5 0.5 0.5 0.5 0.5 0.5 0.5 0.5 0.5 0.5 0.5 0.619496 0.38050399999999995 0.418563 0.581437 0.0479228 0.9520772 0.394609 0.605391 0.5 0.5 0.5 0.5 0.5 0.5 0.5 0.5 0.5 0.5 0.5 0.5 0.86688 0.13312000000000002 0.688164 0.311836 0.131699 0.868301 0.325347 0.674653 0.5 0.5 0.5 0.5 0.5 0.5 0.5 0.5 0.5 0.5 0.5 0.5 0.5 0.5 0.5 0.5 0.93181 0.06818999999999997 0.738709 0.26129100000000005 0.743387 0.256613 0.763118 0.23688200000000004 0.5 0.5 0.5 0.5 0.5 0.5 0.5 0.5 0.5 0.5 0.5 0.5 0.5 0.5 0.5 0.5 0.852842 0.147158 0.240466 0.7595339999999999 0.530422 0.46957800000000005 0.984541 0.015459 0.5 0.5 0.5 0.5 0.5 0.5 0.5 0.5 0.933196 0.06680399999999997 0.359943 0.640057 0.11391 0.88609 0.129842 0.870158 0.5 0.5 0.5 0.5 0.5 0.5 0.5 0.5 0.5 0.5 0.5 0.5 0.5 0.5 0.5 0.5 0.5 0.5 0.5 0.5 0.5 0.5 0.5 0.5 0.5 0.5 0.5 0.5 0.5 0.5 0.5 0.5 0.5 0.5 0.5 0.5 0.5 0.5 0.5 0.5 0.5 0.5 0.5 0.5 0.764947 0.23505299999999996 0.0476431 0.9523569 0.0878499 0.9121501 0.810666 0.189334 0.15433 0.84567 0.619504 0.38049599999999995 0.142951 0.857049 0.38276 0.61724 0.5 0.5 0.5 0.5 0.5 0.5 0.5 0.5 0.519461 0.48053900000000005 0.132319 0.867681 0.423045 0.576955 0.0027283 0.9972717 0.5 0.5 0.5 0.5 0.5 0.5 0.5 0.5 0.5 0.5 0.5 0.5 0.5 0.5 0.5 0.5 0.901982 0.09801800000000005 0.865567 0.13443300000000002 0.0416299 0.9583701 0.989832 0.010167999999999955 0.5 0.5 0.5 0.5 0.5 0.5 0.5 0.5 0.5 0.5 0.5 0.5 0.5 0.5 0.5 0.5 0.5 0.5 0.5 0.5 0.5 0.5 0.5 0.5 0.521123 0.478877 0.416881 0.5831189999999999 0.423168 0.576832 0.612704 0.387296 0.5 0.5 0.5 0.5 0.5 0.5 0.5 0.5 0.5 0.5 0.5 0.5 0.5 0.5 0.5 0.5 0.5 0.5 0.5 0.5 0.5 0.5 0.5 0.5
-1 -2 0
1 2 0
-2 3 0
2 -3 0
-3 -4 0
3 4 0
-4 -5 0
4 5 0
-5 -234 6 0
-5 234 -6 0
5 -235 6 0
5 235 -6 0
-6 -236 7 0
-6 236 -7 0
6 -237 7 0
6 237 -7 0
-7 -8 0
7 8 0
-8 -9 0
8 9 0
-9 -242 10 0
-9 242 -10 0
9 -243 10 0
9 243 -10 0
-10 -244 11 0
-10 244 -11 0
10 -245 11 0
10 245 -11 0
-11 -246 12 0
-11 246 -12 0
11 -247 12 0
11 247 -12 0
-12 -248 13 0
-12 248 -13 0
12 -249 13 0
12 249 -13 0
-13 -250 14 0
-13 250 -14 0
13 -251 14 0
13 251 -14 0
-14 15 0
14 -15 0
-1 -254 16 0
-1 254 -16 0
1 -255 16 0
1 255 -16 0
-16 -2 -256 17 0
-16 -2 256 -17 0
-16 2 -257 17 0
-16 2 257 -17 0
16 -2 -258 17 0
16 -2 258 -17 0
16 2 -259 17 0
16 2 259 -17 0
-17 -3 18 0
-17 3 -18 0
17 -3 -18 0
17 3 -18 0
-18 -4 -264 19 0
-18 -4 264 -19 0
-18 4 -265 19 0
-18 4 265 -19 0
18 -4 -266 19 0
18 -4 266 -19 0
18 4 -267 19 0
18 4 267 -19 0
-19 -5 -20 0
-19 5 -20 0
19 -5 20 0
19 5 20 0
-20 -6 -21 0
-20 6 -21 0
20 -6 21 0
20 6 21 0
-21 -7 -22 0
-21 7 22 0
21 -7 -22 0
21 7 22 0
-22 -8 -23 0
-22 8 23 0
22 -8 -23 0
22 8 23 0
-23 -9 -284 24 0
-23 -9 284 -24 0
-23 9 -285 24 0
-23 9 285 -24 0
23 -9 -286 24 0
23 -9 286 -24 0
23 9 -287 24 0
23 9 287 -24 0
-24 -10 -25 0
-24 10 -25 0
24 -10 25 0
24 10 -25 0
-25 -11 -26 0
-25 11 -26 0
25 -11 -26 0
25 11 26 0
-26 -12 -296 27 0
-26 -12 296 -27 0
-26 12 -297 27 0
-26 12 297 -27 0
26 -12 -298 27 0
26 -12 298 -27 0
26 12 -299 27 0
26 12 299 -27 0
-27 -13 -28 0
-27 13 28 0
27 -13 -28 0
27 13 28 0
-28 -14 -29 0
-28 14 -29 0
28 -14 29 0
28 14 -29 0
-29 -15 -308 30 0
-29 -15 308 -30 0
-29 15 -309 30 0
-29 15 309 -30 0
29 -15 -310 30 0
29 -15 310 -30 0
29 15 -311 30 0
29 15 311 -30 0
-16 -312 31 0
-16 312 -31 0
16 -313 31 0
16 313 -31 0
-31 -17 32 0
-31 17 32 0
31 -17 32 0
31 17 -32 0
-32 -18 33 0
-32 18 33 0
32 -18 -33 0
32 18 33 0
-33 -19 -34 0
-33 19 34 0
33 -19 34 0
33 19 34 0
-34 -20 -35 0
-34 20 35 0
34 -20 35 0
34 20 -35 0
-35 -21 -330 36 0
-35 -21 330 -36 0
-35 21 -331 36 0
-35 21 331 -36 0
35 -21 -332 36 0
35 -21 332 -36 0
35 21 -333 36 0
35 21 333 -36 0
-36 -22 37 0
-36 22 -37 0
36 -22 -37 0
36 22 -37 0
-37 -23 -38 0
-37 23 38 0
37 -23 -38 0
37 23 38 0
-38 -24 -39 0
-38 24 -39 0
38 -24 -39 0
38 24 39 0
-39 -25 -40 0
-39 25 -40 0
39 -25 -40 0
39 25 40 0
-40 -26 -350 41 0
-40 -26 350 -41 0
-40 26 -351 41 0
-40 26 351 -41 0
40 -26 -352 41 0
40 -26 352 -41 0
40 26 -353 41 0
40 26 353 -41 0
-41 -27 -42 0
-41 27 -42 0
41 -27 42 0
41 27 42 0
-42 -28 -358 43 0
-42 -28 358 -43 0
-42 28 -359 43 0
-42 28 359 -43 0
42 -28 -360 43 0
42 -28 360 -43 0
42 28 -361 43 0
42 28 361 -43 0
-43 -29 -44 0
-43 29 44 0
43 -29 44 0
43 29 44 0
-44 -30 45 0
-44 30 -45 0
44 -30 45 0
44 30 45 0
-31 -370 46 0
-31 370 -46 0
31 -371 46 0
31 371 -46 0
-46 -32 -372 47 0
-46 -32 372 -47 0
-46 32 -373 47 0
-46 32 373 -47 0
46 -32 -374 47 0
46 -32 374 -47 0
46 32 -375 47 0
46 32 375 -47 0
-47 -33 48 0
-47 33 -48 0
47 -33 -48 0
47 33 48 0
-48 -34 -49 0
-48 34 -49 0
48 -34 -49 0
48 34 49 0
-49 -35 -50 0
-49 35 -50 0
49 -35 50 0
49 35 50 0
-50 -36 -388 51 0
-50 -36 388 -51 0
-50 36 -389 51 0
-50 36 389 -51 0
50 -36 -390 51 0
50 -36 390 -51 0
50 36 -391 51 0
50 36 391 -51 0
-51 -37 52 0
-51 37 52 0
51 -37 52 0
51 37 -52 0
-52 -38 -53 0
-52 38 -53 0
52 -38 53 0
52 38 53 0
-53 -39 -400 54 0
-53 -39 400 -54 0
-53 39 -401 54 0
-53 39 401 -54 0
53 -39 -402 54 0
53 -39 402 -54 0
53 39 -403 54 0
53 39 403 -54 0
-54 -40 55 0
-54 40 -55 0
54 -40 -55 0
54 40 55 0
-55 -41 -56 0
-55 41 56 0
55 -41 56 0
55 41 -56 0
-56 -42 -412 57 0
-56 -42 412 -57 0
-56 42 -413 57 0
-56 42 413 -57 0
56 -42 -414 57 0
56 -42 414 -57 0
56 42 -415 57 0
56 42 415 -57 0
-57 -43 58 0
-57 43 58 0
57 -43 58 0
57 43 -58 0
-58 -44 -420 59 0
-58 -44 420 -59 0
-58 44 -421 59 0
-58 44 421 -59 0
58 -44 -422 59 0
58 -44 422 -59 0
58 44 -423 59 0
58 44 423 -59 0
-59 -45 60 0
-59 45 60 0
59 -45 -60 0
59 45 60 0
-46 -61 0
46 61 0
-61 -47 62 0
-61 47 -62 0
61 -47 62 0
61 47 -62 0
-62 -48 63 0
-62 48 -63 0
62 -48 63 0
62 48 63 0
-63 -49 64 0
-63 49 64 0
63 -49 64 0
63 49 -64 0
-64 -50 -442 65 0
-64 -50 442 -65 0
-64 50 -443 65 0
-64 50 443 -65 0
64 -50 -444 65 0
64 -50 444 -65 0
64 50 -445 65 0
64 50 445 -65 0
-65 -51 66 0
-65 51 -66 0
65 -51 66 0
65 51 -66 0
-66 -52 -450 67 0
-66 -52 450 -67 0
-66 52 -451 67 0
-66 52 451 -67 0
66 -52 -452 67 0
66 -52 452 -67 0
66 52 -453 67 0
66 52 453 -67 0
-67 -53 -454 68 0
-67 -53 454 -68 0
-67 53 -455 68 0
-67 53 455 -68 0
67 -53 -456 68 0
67 -53 456 -68 0
67 53 -457 68 0
67 53 457 -68 0
-68 -54 -69 0
-68 54 69 0
68 -54 -69 0
68 54 69 0
-69 -55 70 0
-69 55 -70 0
69 -55 70 0
69 55 -70 0
-70 -56 71 0
-70 56 -71 0
70 -56 -71 0
70 56 -71 0
-71 -57 -470 72 0
-71 -57 470 -72 0
-71 57 -471 72 0
-71 57 471 -72 0
71 -57 -472 72 0
71 -57 472 -72 0
71 57 -473 72 0
71 57 473 -72 0
-72 -58 -73 0
-72 58 -73 0
72 -58 -73 0
72 58 73 0
-73 -59 74 0
-73 59 74 0
73 -59 -74 0
73 59 74 0
-74 -60 -75 0
-74 60 -75 0
74 -60 -75 0
74 60 75 0
-61 -76 0
61 76 0
-76 -62 -488 77 0
-76 -62 488 -77 0
-76 62 -489 77 0
-76 62 489 -77 0
76 -62 -490 77 0
76 -62 490 -77 0
76 62 -491 77 0
76 62 491 -77 0
-77 -63 -78 0
-77 63 78 0
77 -63 -78 0
77 63 78 0
-78 -64 -496 79 0
-78 -64 496 -79 0
-78 64 -497 79 0
-78 64 497 -79 0
78 -64 -498 79 0
78 -64 498 -79 0
78 64 -499 79 0
78 64 499 -79 0
-79 -65 80 0
-79 65 -80 0
79 -65 -80 0
79 65 80 0
-80 -66 -504 81 0
-80 -66 504 -81 0
-80 66 -505 81 0
-80 66 505 -81 0
80 -66 -506 81 0
80 -66 506 -81 0
80 66 -507 81 0
80 66 507 -81 0
-81 -67 -82 0
-81 67 -82 0
81 -67 82 0
81 67 82 0
-82 -68 -83 0
-82 68 -83 0
82 -68 83 0
82 68 -83 0
-83 -69 -516 84 0
-83 -69 516 -84 0
-83 69 -517 84 0
-83 69 517 -84 0
83 -69 -518 84 0
83 -69 518 -84 0
83 69 -519 84 0
83 69 519 -84 0
-84 -70 -85 0
-84 70 85 0
84 -70 85 0
84 70 -85 0
-85 -71 -86 0
-85 71 -86 0
85 -71 -86 0
85 71 86 0
-86 -72 -87 0
-86 72 -87 0
86 -72 -87 0
86 72 87 0
-87 -73 88 0
-87 73 88 0
87 -73 -88 0
87 73 -88 0
-88 -74 -89 0
-88 74 89 0
88 -74 89 0
88 74 89 0
-89 -75 90 0
-89 75 -90 0
89 -75 -90 0
89 75 -90 0
-76 -91 0
76 91 0
-91 -77 -92 0
-91 77 92 0
91 -77 92 0
91 77 92 0
-92 -78 93 0
-92 78 93 0
92 -78 -93 0
92 78 93 0
-93 -79 -94 0
-93 79 -94 0
93 -79 94 0
93 79 94 0
-94 -80 95 0
-94 80 -95 0
94 -80 -95 0
94 80 95 0
-95 -81 96 0
-95 81 96 0
95 -81 -96 0
95 81 -96 0
-96 -82 97 0
-96 82 -97 0
96 -82 97 0
96 82 97 0
-97 -83 98 0
-97 83 98 0
97 -83 -98 0
97 83 -98 0
-98 -84 99 0
-98 84 99 0
98 -84 -99 0
98 84 99 0
-99 -85 100 0
-99 85 100 0
99 -85 -100 0
99 85 100 0
-100 -86 -101 0
-100 86 -101 0
100 -86 -101 0
100 86 101 0
-101 -87 102 0
-101 87 -102 0
101 -87 102 0
101 87 -102 0
-102 -88 -103 0
-102 88 103 0
102 -88 103 0
102 88 -103 0
-103 -89 -104 0
-103 89 104 0
103 -89 104 0
103 89 -104 0
-104 -90 -598 105 0
-104 -90 598 -105 0
-104 90 -599 105 0
-104 90 599 -105 0
104 -90 -600 105 0
104 -90 600 -105 0
104 90 -601 105 0
104 90 601 -105 0
-91 -602 106 0
-91 602 -106 0
91 -603 106 0
91 603 -106 0
-106 -92 -107 0
-106 92 107 0
106 -92 -107 0
106 92 107 0
-107 -93 -108 0
-107 93 -108 0
107 -93 108 0
107 93 -108 0
-108 -94 -109 0
-108 94 -109 0
108 -94 109 0
108 94 109 0
-109 -95 110 0
-109 95 110 0
109 -95 -110 0
109 95 110 0
-110 -96 -111 0
-110 96 111 0
110 -96 111 0
110 96 111 0
-111 -97 -624 112 0
-111 -97 624 -112 0
-111 97 -625 112 0
-111 97 625 -112 0
111 -97 -626 112 0
111 -97 626 -112 0
111 97 -627 112 0
111 97 627 -112 0
-112 -98 113 0
-112 98 113 0
112 -98 113 0
112 98 -113 0
-113 -99 -114 0
-113 99 114 0
113 -99 -114 0
113 99 -114 0
-114 -100 -115 0
-114 100 -115 0
114 -100 115 0
114 100 115 0
-115 -101 -116 0
-115 101 -116 0
115 -101 116 0
115 101 -116 0
-116 -102 117 0
-116 102 117 0
116 -102 117 0
116 102 -117 0
-117 -103 118 0
-117 103 -118 0
117 -103 118 0
117 103 118 0
-118 -104 119 0
-118 104 -119 0
118 -104 119 0
118 104 119 0
-119 -105 120 0
-119 105 -120 0
119 -105 -120 0
119 105 120 0
-106 121 0
106 -121 0
-121 -107 -662 122 0
-121 -107 662 -122 0
-121 107 -663 122 0
-121 107 663 -122 0
121 -107 -664 122 0
121 -107 664 -122 0
121 107 -665 122 0
121 107 665 -122 0
-122 -108 123 0
-122 108 -123 0
122 -108 123 0
122 108 -123 0
-123 -109 -670 124 0
-123 -109 670 -124 0
-123 109 -671 124 0
-123 109 671 -124 0
123 -109 -672 124 0
123 -109 672 -124 0
123 109 -673 124 0
123 109 673 -124 0
-124 -110 -125 0
-124 110 125 0
124 -110 125 0
124 110 -125 0
-125 -111 126 0
-125 111 126 0
125 -111 126 0
125 111 -126 0
-126 -112 127 0
-126 112 -127 0
126 -112 -127 0
126 112 -127 0
-127 -113 -128 0
-127 113 128 0
127 -113 -128 0
127 113 -128 0
-128 -114 -690 129 0
-128 -114 690 -129 0
-128 114 -691 129 0
-128 114 691 -129 0
128 -114 -692 129 0
128 -114 692 -129 0
128 114 -693 129 0
128 114 693 -129 0
-129 -115 -694 130 0
-129 -115 694 -130 0
-129 115 -695 130 0
-129 115 695 -130 0
129 -115 -696 130 0
129 -115 696 -130 0
129 115 -697 130 0
129 115 697 -130 0
-130 -116 131 0
-130 116 -131 0
130 -116 131 0
130 116 131 0
-131 -117 -132 0
-131 117 132 0
131 -117 132 0
131 117 132 0
-132 -118 133 0
-132 118 -133 0
132 -118 133 0
132 118 133 0
-133 -119 134 0
-133 119 134 0
133 -119 134 0
133 119 -134 0
-134 -120 -135 0
-134 120 135 0
134 -120 -135 0
134 120 -135 0
-121 -136 0
121 136 0
-136 -122 137 0
-136 122 137 0
136 -122 -137 0
136 122 -137 0
-137 -123 -724 138 0
-137 -123 724 -138 0
-137 123 -725 138 0
-137 123 725 -138 0
137 -123 -726 138 0
137 -123 726 -138 0
137 123 -727 138 0
137 123 727 -138 0
-138 -124 -139 0
-138 124 139 0
138 -124 139 0
138 124 139 0
-139 -125 -732 140 0
-139 -125 732 -140 0
-139 125 -733 140 0
-139 125 733 -140 0
139 -125 -734 140 0
139 -125 734 -140 0
139 125 -735 140 0
139 125 735 -140 0
-140 -126 141 0
-140 126 141 0
140 -126 141 0
140 126 -141 0
-141 -127 -740 142 0
-141 -127 740 -142 0
-141 127 -741 142 0
-141 127 741 -142 0
141 -127 -742 142 0
141 -127 742 -142 0
141 127 -743 142 0
141 127 743 -142 0
-142 -128 -744 143 0
-142 -128 744 -143 0
-142 128 -745 143 0
-142 128 745 -143 0
142 -128 -746 143 0
142 -128 746 -143 0
142 128 -747 143 0
142 128 747 -143 0
-143 -129 144 0
-143 129 144 0
143 -129 -144 0
143 129 -144 0
-144 -130 145 0
-144 130 145 0
144 -130 145 0
144 130 -145 0
-145 -131 146 0
-145 131 146 0
145 -131 -146 0
145 131 146 0
-146 -132 147 0
-146 132 -147 0
146 -132 147 0
146 132 -147 0
-147 -133 148 0
-147 133 -148 0
147 -133 148 0
147 133 148 0
-148 -134 149 0
-148 134 -149 0
148 -134 -149 0
148 134 149 0
-149 -135 150 0
-149 135 150 0
149 -135 150 0
149 135 -150 0
-136 -776 151 0
-136 776 -151 0
136 -777 151 0
136 777 -151 0
-151 -137 152 0
-151 137 152 0
151 -137 152 0
151 137 -152 0
-152 -138 153 0
-152 138 -153 0
152 -138 153 0
152 138 153 0
-153 -139 154 0
-153 139 154 0
153 -139 -154 0
153 139 154 0
-154 -140 155 0
-154 140 -155 0
154 -140 155 0
154 140 155 0
-155 -141 156 0
-155 141 -156 0
155 -141 -156 0
155 141 156 0
-156 -142 157 0
-156 142 157 0
156 -142 157 0
156 142 -157 0
-157 -143 158 0
-157 143 158 0
157 -143 158 0
157 143 -158 0
-158 -144 -159 0
-158 144 159 0
158 -144 159 0
158 144 -159 0
-159 -145 160 0
-159 145 160 0
159 -145 -160 0
159 145 -160 0
-160 -146 161 0
-160 146 161 0
160 -146 -161 0
160 146 161 0
-161 -147 -162 0
-161 147 162 0
161 -147 162 0
161 147 162 0
-162 -148 163 0
-162 148 -163 0
162 -148 163 0
162 148 163 0
-163 -149 -826 164 0
-163 -149 826 -164 0
-163 149 -827 164 0
-163 149 827 -164 0
163 -149 -828 164 0
163 -149 828 -164 0
163 149 -829 164 0
163 149 829 -164 0
-164 -150 -165 0
-164 150 165 0
164 -150 -165 0
164 150 -165 0
-151 -834 166 0
-151 834 -166 0
151 -835 166 0
151 835 -166 0
-166 -152 167 0
-166 152 167 0
166 -152 -167 0
166 152 167 0
-167 -153 -168 0
-167 153 168 0
167 -153 168 0
167 153 168 0
-168 -154 169 0
-168 154 -169 0
168 -154 -169 0
168 154 169 0
-169 -155 170 0
-169 155 -170 0
169 -155 170 0
169 155 170 0
-170 -156 171 0
-170 156 171 0
170 -156 171 0
170 156 -171 0
-171 -157 172 0
-171 157 -172 0
171 -157 -172 0
171 157 172 0
-172 -158 -173 0
-172 158 -173 0
172 -158 -173 0
172 158 173 0
-173 -159 174 0
-173 159 -174 0
173 -159 -174 0
173 159 174 0
-174 -160 -868 175 0
-174 -160 868 -175 0
-174 160 -869 175 0
-174 160 869 -175 0
174 -160 -870 175 0
174 -160 870 -175 0
174 160 -871 175 0
174 160 871 -175 0
-175 -161 -176 0
-175 161 -176 0
175 -161 -176 0
175 161 176 0
-176 -162 -177 0
-176 162 -177 0
176 -162 -177 0
176 162 177 0
-177 -163 -178 0
-177 163 178 0
177 -163 -178 0
177 163 -178 0
-178 -164 -179 0
-178 164 -179 0
178 -164 -179 0
178 164 179 0
-179 -165 -180 0
-179 165 180 0
179 -165 -180 0
179 165 -180 0
-166 -892 181 0
-166 892 -181 0
166 -893 181 0
166 893 -181 0
-181 -167 -182 0
-181 167 182 0
181 -167 -182 0
181 167 -182 0
-182 -168 -898 183 0
-182 -168 898 -183 0
-182 168 -899 183 0
-182 168 899 -183 0
182 -168 -900 183 0
182 -168 900 -183 0
182 168 -901 183 0
182 168 901 -183 0
-183 -169 -902 184 0
-183 -169 902 -184 0
-183 169 -903 184 0
-183 169 903 -184 0
183 -169 -904 184 0
183 -169 904 -184 0
183 169 -905 184 0
183 169 905 -184 0
-184 -170 -185 0
-184 170 -185 0
184 -170 185 0
184 170 185 0
-185 -171 -910 186 0
-185 -171 910 -186 0
-185 171 -911 186 0
-185 171 911 -186 0
185 -171 -912 186 0
185 -171 912 -186 0
185 171 -913 186 0
185 171 913 -186 0
-186 -172 -914 187 0
-186 -172 914 -187 0
-186 172 -915 187 0
-186 172 915 -187 0
186 -172 -916 187 0
186 -172 916 -187 0
186 172 -917 187 0
186 172 917 -187 0
-187 -173 188 0
-187 173 -188 0
187 -173 188 0
187 173 188 0
-188 -174 -189 0
-188 174 189 0
188 -174 189 0
188 174 189 0
-189 -175 -190 0
-189 175 -190 0
189 -175 190 0
189 175 -190 0
-190 -176 191 0
-190 176 -191 0
190 -176 191 0
190 176 -191 0
-191 -177 192 0
-191 177 192 0
191 -177 192 0
191 177 -192 0
-192 -178 -193 0
-192 178 193 0
192 -178 193 0
192 178 -193 0
-193 -179 -942 194 0
-193 -179 942 -194 0
-193 179 -943 194 0
-193 179 943 -194 0
193 -179 -944 194 0
193 -179 944 -194 0
193 179 -945 194 0
193 179 945 -194 0
-194 -180 -195 0
-194 180 -195 0
194 -180 -195 0
194 180 195 0
-181 196 0
181 -196 0
-196 -182 -952 197 0
-196 -182 952 -197 0
-196 182 -953 197 0
-196 182 953 -197 0
196 -182 -954 197 0
196 -182 954 -197 0
196 182 -955 197 0
196 182 955 -197 0
-197 -183 198 0
-197 183 198 0
197 -183 -198 0
197 183 198 0
-198 -184 199 0
-198 184 -199 0
198 -184 199 0
198 184 -199 0
-199 -185 -964 200 0
-199 -185 964 -200 0
-199 185 -965 200 0
-199 185 965 -200 0
199 -185 -966 200 0
199 -185 966 -200 0
199 185 -967 200 0
199 185 967 -200 0
-200 -186 -201 0
-200 186 201 0
200 -186 -201 0
200 186 201 0
-201 -187 -202 0
-201 187 202 0
201 -187 -202 0
201 187 -202 0
-202 -188 -976 203 0
-202 -188 976 -203 0
-202 188 -977 203 0
-202 188 977 -203 0
202 -188 -978 203 0
202 -188 978 -203 0
202 188 -979 203 0
202 188 979 -203 0
-203 -189 -204 0
-203 189 -204 0
203 -189 -204 0
203 189 204 0
-204 -190 -984 205 0
-204 -190 984 -205 0
-204 190 -985 205 0
-204 190 985 -205 0
204 -190 -986 205 0
204 -190 986 -205 0
204 190 -987 205 0
204 190 987 -205 0
-205 -191 206 0
-205 191 206 0
205 -191 206 0
205 191 -206 0
-206 -192 -207 0
-206 192 207 0
206 -192 207 0
206 192 207 0
-207 -193 208 0
-207 193 208 0
207 -193 208 0
207 193 -208 0
-208 -194 209 0
-208 194 209 0
208 -194 -209 0
208 194 -209 0
-209 -195 -210 0
-209 195 -210 0
209 -195 210 0
209 195 -210 0
-196 211 0
196 -211 0
-211 -197 -1010 212 0
-211 -197 1010 -212 0
-211 197 -1011 212 0
-211 197 1011 -212 0
211 -197 -1012 212 0
211 -197 1012 -212 0
211 197 -1013 212 0
211 197 1013 -212 0
-212 -198 -1014 213 0
-212 -198 1014 -213 0
-212 198 -1015 213 0
-212 198 1015 -213 0
212 -198 -1016 213 0
212 -198 1016 -213 0
212 198 -1017 213 0
212 198 1017 -213 0
-213 -199 214 0
-213 199 214 0
213 -199 -214 0
213 199 214 0
-214 -200 -1022 215 0
-214 -200 1022 -215 0
-214 200 -1023 215 0
-214 200 1023 -215 0
214 -200 -1024 215 0
214 -200 1024 -215 0
214 200 -1025 215 0
214 200 1025 -215 0
-215 -201 -216 0
-215 201 216 0
215 -201 -216 0
215 201 -216 0
-216 -202 -217 0
-216 202 -217 0
216 -202 217 0
216 202 -217 0
-217 -203 -1034 218 0
-217 -203 1034 -218 0
-217 203 -1035 218 0
-217 203 1035 -218 0
217 -203 -1036 218 0
217 -203 1036 -218 0
217 203 -1037 218 0
217 203 1037 -218 0
-218 -204 219 0
-218 204 -219 0
218 -204 -219 0
218 204 219 0
-219 -205 -220 0
-219 205 220 0
219 -205 220 0
219 205 220 0
-220 -206 -221 0
-220 206 221 0
220 -206 -221 0
220 206 221 0
-221 -207 -1050 222 0
-221 -207 1050 -222 0
-221 207 -1051 222 0
-221 207 1051 -222 0
221 -207 -1052 222 0
221 -207 1052 -222 0
221 207 -1053 222 0
221 207 1053 -222 0
-222 -208 223 0
-222 208 -223 0
222 -208 223 0
222 208 223 0
-223 -209 224 0
-223 209 -224 0
223 -209 -224 0
223 209 -224 0
-224 -210 -225 0
-224 210 -225 0
224 -210 225 0
224 210 -225 0
225 0
