data/benchmarks/bayes/75-15-5-q.gr
p tw 1065 1236
166 181
198 213
213 1016
8 9
44 420
40 41
199 214
41 42
168 900
73 74
109 671
171 911
74 75
106 107
203 979
7 21
107 108
142 740
53 402
40 54
123 726
140 141
29 310
73 87
173 174
188 977
183 898
206 207
196 953
207 208
139 153
172 186
205 220
138 724
173 187
175 871
200 964
206 220
9 286
44 423
11 246
113 114
2 17
130 697
146 147
3 18
35 50
136 776
179 180
50 444
36 51
68 83
69 84
101 116
26 351
113 127
213 214
2 259
102 117
59 421
64 499
146 160
91 602
135 150
123 670
179 193
185 910
212 1013
168 183
124 671
10 11
137 726
43 44
164 828
57 473
17 257
76 77
9 24
79 497
202 976
27 41
42 57
60 74
30 311
36 391
75 90
12 299
31 312
108 123
71 470
15 309
109 124
203 1034
179 942
142 157
53 457
72 470
23 285
16 17
175 190
182 952
24 286
193 207
174 868
9 243
49 50
208 223
6 237
32 375
51 388
50 51
212 1016
82 83
27 296
64 443
10 243
83 84
115 116
40 351
65 444
34 48
129 694
16 259
172 915
116 117
41 352
78 499
67 81
167 168
49 63
149 150
100 114
200 201
82 96
182 183
133 147
127 741
115 129
184 903
215 216
122 137
71 473
167 181
168 899
200 214
50 391
203 978
182 955
26 298
53 401
123 725
11 26
29 309
185 965
217 1034
44 59
67 457
129 697
96 111
196 952
129 144
46 375
197 952
162 177
4 265
144 159
195 210
18 19
177 192
44 422
11 245
210 225
12 246
109 673
21 331
3 17
103 104
171 913
85 86
166 834
36 50
136 137
142 742
118 119
69 83
169 170
151 152
62 489
102 116
202 203
59 420
182 899
64 498
188 979
103 117
135 149
183 900
168 182
196 955
124 670
186 910
169 183
137 725
25 26
199 965
202 216
138 726
57 472
9 23
31 46
32 47
176 177
65 80
109 123
209 210
191 192
98 113
142 156
26 353
224 225
131 146
59 423
175 189
24 285
164 179
176 190
208 222
123 672
6 7
197 212
185 912
212 1015
209 223
124 673
39 40
10 242
65 443
72 73
172 914
41 351
78 498
5 19
17 259
38 53
205 984
79 499
202 978
6 20
71 86
39 53
104 119
184 902
72 86
105 120
137 152
39 403
71 472
138 153
15 311
203 1036
12 13
179 944
171 186
72 472
13 14
23 287
204 219
182 954
46 47
78 79
174 870
26 297
51 390
79 80
11 25
27 298
215 1023
64 445
12 26
112 113
44 58
40 353
1 16
45 59
129 696
145 146
172 917
78 92
178 179
111 125
211 212
151 835
4 264
112 126
127 743
212 213
144 158
66 504
145 159
42 412
177 191
187 915
178 192
210 224
168 901
107 662
21 330
7 22
142 741
8 23
53 403
40 55
123 727
62 488
184 185
29 311
185 967
217 1036
41 56
73 88
188 978
74 89
183 899
106 121
196 954
107 122
139 154
52 451
140 155
172 187
184 198
28 359
197 954
14 15
138 725
173 188
200 965
47 48
206 221
48 49
80 81
11 247
81 82
12 248
14 28
114 115
47 61
147 148
80 94
113 128
59 422
181 182
182 901
146 161
121 662
214 215
179 194
185 911
21 22
147 161
124 672
180 195
186 912
54 55
137 727
199 967
87 88
88 89
79 498
202 977
21 35
121 122
153 154
10 25
54 68
154 155
31 313
105 119
43 58
87 101
187 188
76 91
120 134
220 221
179 943
72 471
153 167
24 287
174 869
212 1017
215 1022
10 244
65 445
172 916
16 31
14 250
41 353
205 986
49 64
82 97
125 733
83 98
115 130
184 904
116 131
167 182
187 914
149 164
200 215
23 24
182 197
24 25
56 57
57 58
89 90
26 299
8 22
185 966
217 1035
97 624
41 55
141 142
23 37
123 124
74 88
174 175
56 70
218 1035
156 157
107 121
194 943
200 1023
89 103
189 190
52 450
140 154
114 690
28 358
222 223
197 953
90 598
141 155
4 266
66 506
174 188
42 414
207 221
187 917
69 516
63 64
12 247
107 664
21 332
13 248
166 835
18 33
142 743
130 131
62 490
163 164
182 900
196 197
103 118
183 901
136 151
180 194
118 133
186 911
169 184
151 166
199 966
202 217
111 624
138 727
200 967
31 371
77 78
10 24
110 111
66 450
25 40
128 690
42 358
198 1014
43 57
67 451
143 144
104 598
18 265
77 91
83 516
110 124
121 664
17 18
143 157
176 191
123 673
35 331
185 913
209 224
186 914
84 85
76 489
5 20
205 985
17 31
117 118
202 979
6 21
141 740
50 64
125 732
39 54
83 97
183 184
72 87
84 98
116 130
216 217
198 199
117 131
149 163
203 1037
222 1050
115 695
179 945
150 164
182 196
72 473
183 197
174 871
7 236
51 391
27 299
215 1024
12 27
13 28
45 60
218 1034
197 1011
46 61
194 942
78 93
200 1022
149 827
79 94
111 126
125 735
112 127
66 505
58 421
128 745
145 160
42 413
190 985
19 20
187 916
178 193
20 21
52 53
107 663
169 903
53 54
86 87
18 32
54 400
19 33
119 120
217 1037
97 626
52 66
152 153
85 99
185 186
218 1037
194 945
186 187
118 132
218 219
52 452
119 133
219 220
114 692
184 199
28 360
47 373
197 955
90 600
152 166
200 966
112 624
31 370
59 60
185 199
211 1011
69 518
92 93
12 249
25 39
125 126
67 450
14 29
129 690
16 255
158 159
15 30
105 598
47 62
18 264
59 73
142 745
159 160
80 504
48 63
19 265
80 95
56 412
92 106
192 193
81 96
84 516
125 139
121 663
114 129
183 903
158 172
35 330
147 162
191 205
36 331
186 913
22 23
111 626
76 488
55 56
77 489
21 36
160 868
66 452
54 69
128 692
42 360
198 1016
87 102
88 103
18 267
120 135
115 694
193 942
121 136
46 371
153 168
83 518
154 169
28 29
187 202
213 1014
35 333
29 30
61 62
10 245
62 63
94 95
13 27
14 251
197 1010
95 96
127 128
76 491
205 987
28 42
128 129
160 161
149 826
79 93
141 742
125 734
161 162
184 905
94 108
194 195
58 420
128 744
127 141
190 984
166 892
222 1052
160 174
169 902
207 1050
9 284
134 135
97 625
23 38
130 695
68 454
56 71
218 1036
50 442
194 944
200 1024
57 72
89 104
201 202
114 691
90 105
47 372
134 148
90 599
141 156
4 267
123 138
66 507
58 423
174 189
128 747
42 415
156 171
211 1010
207 222
69 517
189 204
212 1011
163 826
31 32
107 665
21 333
13 249
169 905
16 254
64 65
139 733
15 29
142 744
97 98
54 402
204 984
48 62
19 264
148 149
30 44
62 491
63 78
81 504
81 95
143 744
57 412
114 128
183 902
221 1050
122 662
36 330
148 162
4 5
111 625
37 38
196 211
112 626
5 234
77 488
70 71
32 373
66 451
214 1023
128 691
42 359
198 1015
67 452
104 599
155 156
129 692
137 138
105 600
88 102
18 266
188 189
142 747
43 359
170 171
80 506
77 92
19 267
46 370
221 222
56 414
83 517
203 204
110 125
154 168
84 518
121 665
143 158
155 169
183 905
187 201
35 332
188 202
36 333
186 915
51 52
76 490
17 32
203 976
77 491
141 741
50 65
160 870
51 65
84 99
117 132
222 1051
115 696
150 165
46 373
183 198
175 868
7 237
58 59
215 1025
91 92
130 694
24 38
124 125
197 1012
57 71
157 158
139 140
149 828
58 72
90 104
190 191
172 173
2 256
123 137
223 224
64 496
58 422
128 746
124 138
156 170
190 986
16 312
157 171
189 203
212 1010
190 204
169 904
139 732
57 470
207 1052
140 733
54 401
19 34
63 77
97 627
20 35
30 308
52 67
36 388
12 296
53 68
85 100
68 456
86 101
130 144
52 453
119 134
114 693
28 361
163 177
47 374
53 454
90 601
152 167
112 625
26 27
185 200
211 1012
6 234
27 28
32 372
186 201
69 519
163 828
214 1022
13 251
93 94
129 691
16 256
139 735
78 496
105 599
26 40
126 127
59 74
142 746
43 358
80 505
204 986
19 266
56 413
92 107
81 506
143 746
57 414
84 517
125 140
183 904
93 107
193 194
158 173
39 401
126 140
221 1052
159 174
122 664
191 206
36 332
33 34
192 207
111 627
34 35
66 67
50 388
67 68
99 100
77 490
100 101
132 133
160 869
66 453
33 47
133 134
214 1025
128 693
42 361
198 1017
67 454
22 37
104 601
66 80
166 167
55 70
99 113
199 200
43 361
193 943
46 372
132 146
83 519
165 179
198 212
213 1015
199 213
186 917
109 670
171 910
28 43
141 743
29 44
61 76
205 206
62 77
94 109
188 976
95 110
127 142
166 893
128 143
222 1053
160 175
2 3
161 176
205 219
3 4
35 36
194 209
175 870
207 1051
140 732
36 37
68 69
9 285
151 777
69 70
101 102
20 34
2 16
102 103
130 696
53 67
68 455
35 49
50 443
86 100
200 1025
106 603
68 82
168 169
101 115
26 350
134 149
2 258
9 10
186 200
212 1012
42 43
201 216
163 827
13 250
139 734
108 109
164 827
17 256
140 735
54 403
109 110
204 985
79 496
30 45
81 505
42 56
142 143
143 745
30 310
57 413
36 390
75 89
175 176
12 298
181 893
64 79
108 122
208 209
39 400
221 1051
159 173
97 112
122 663
15 308
148 163
192 206
53 456
181 196
23 284
112 627
5 235
5 6
9 242
6 236
32 374
64 442
214 1024
4 19
40 350
67 453
22 36
122 123
104 600
129 693
16 258
37 52
55 69
105 601
43 360
70 85
80 507
56 415
84 519
127 740
1 255
122 136
155 170
188 203
11 12
170 185
186 916
168 898
44 45
203 218
50 390
203 977
96 97
29 43
53 400
129 130
123 724
160 871
111 112
29 308
185 964
62 76
162 163
144 145
51 66
67 456
95 109
177 178
96 110
128 142
115 697
193 945
129 143
161 175
46 374
162 176
194 208
175 869
195 209
213 1017
151 776
44 421
11 244
109 672
24 39
171 912
197 1013
106 602
149 829
58 73
2 257
91 106
182 898
64 497
217 218
124 139
190 987
16 313
157 172
201 215
190 205
137 724
32 33
199 964
164 826
57 471
207 1053
65 66
140 734
9 287
98 99
30 309
36 389
131 132
12 297
32 46
181 892
68 457
64 78
164 165
136 777
50 445
65 79
97 111
197 198
130 145
98 112
163 178
47 375
26 352
53 455
131 145
91 603
24 284
38 39
164 178
211 1013
123 671
6 235
71 72
197 211
212 1014
163 829
4 18
104 105
65 442
16 257
37 51
41 350
164 829
78 497
26 41
17 258
38 52
138 139
70 84
204 987
27 42
71 85
171 172
81 507
60 75
143 747
57 415
104 118
204 205
1 254
93 108
137 151
39 402
71 471
126 141
221 1053
122 665
138 152
170 184
15 310
203 1035
171 185
203 217
1 2
23 286
50 389
204 218
182 953
193 208
26 296
51 389
27 297
64 444
33 48
40 352
67 455
34 49
66 81
129 695
67 82
99 114
193 944
100 115
132 147
151 834
133 148
127 742
165 180
7 8
